RT is False
Default write of storage_offers_DA.csv just to have a file (but constraint should be inactive)
Reading model...
...model read.
creating competitive generators file...
...competitive generators recorded.
Loading data...
.. day-ahead data with real-time VRE data read.
Compiling instance...
...instance created.
Creating Offer Mitigation (model will solve as dispatch if TRUE)...
NOTE: storage offers will not be mitigated
...storage offer mitigation file created
Converting model to MPEC...
...converted
NOTE: initial MIP solve with only storage competitive to get feasible solution
Solving...

Welcome to IBM(R) ILOG(R) CPLEX(R) Interactive Optimizer 12.9.0.0
  with Simplex, Mixed Integer & Barrier Optimizers
5725-A06 5725-A29 5724-Y48 5724-Y49 5724-Y54 5724-Y55 5655-Y21
Copyright IBM Corp. 1988, 2019.  All Rights Reserved.

Type 'help' for a list of available commands.
Type 'help' followed by a command name for more
information on commands.

CPLEX> Logfile 'cplex.log' closed.
Logfile 'C:\Users\llavin\Desktop\test826\logs\tmpufxdjd6j.cplex.log' open.
CPLEX> New value for parallel optimization mode: -1
CPLEX> New value for emphasis for MIP optimization: 1
CPLEX> New value for mixed integer optimality gap tolerance: 0.01
CPLEX> New value for integrality tolerance: 1e-12
CPLEX> New value for deterministic time limit in ticks: 75000
CPLEX> Problem 'C:\Users\llavin\Desktop\test826\logs\tmpzs5uv7hq.pyomo.lp' read.
Read time = 0.22 sec. (13.92 ticks)
CPLEX> Problem name         : C:\Users\llavin\Desktop\test826\logs\tmpzs5uv7hq.pyomo.lp
Objective sense      : Maximize
Variables            :   53809  [Nneg: 1,  Box: 22004,  Free: 4464,
                                 Binary: 27340]
Objective nonzeros   :    9029
Linear constraints   :  123253  [Less: 41346,  Greater: 59096,  Equal: 22811]
  Nonzeros           :  293217
  RHS nonzeros       :   67491

Variables            : Min LB: -5000.000        Max UB: 1000000.       
Objective nonzeros   : Min   : 0.1083333        Max   : 2500.000       
Linear constraints   :
  Nonzeros           : Min   : 0.1083333        Max   : 1000000.       
  RHS nonzeros       : Min   : 0.1083333        Max   : 1000000.       
CPLEX> CPXPARAM_Parallel                                -1
CPXPARAM_Emphasis_MIP                            1
CPXPARAM_DetTimeLimit                            75000
CPXPARAM_MIP_Tolerances_MIPGap                   0.01
CPXPARAM_MIP_Tolerances_Integrality              9.9999999999999998e-13
Tried aggregator 4 times.
MIP Presolve eliminated 88648 rows and 18951 columns.
MIP Presolve added 3380 rows and 0 columns.
MIP Presolve modified 24833 coefficients.
Aggregator did 13009 substitutions.
Reduced MIP has 24976 rows, 21293 columns, and 71849 nonzeros.
Reduced MIP has 8424 binaries, 0 generals, 0 SOSs, and 0 indicators.
Presolve time = 0.33 sec. (192.68 ticks)
Probing fixed 419 vars, tightened 3886 bounds.
Probing time = 0.08 sec. (19.33 ticks)
Tried aggregator 2 times.
MIP Presolve eliminated 939 rows and 839 columns.
MIP Presolve modified 3035 coefficients.
Aggregator did 24 substitutions.
Reduced MIP has 24013 rows, 20430 columns, and 69055 nonzeros.
Reduced MIP has 8005 binaries, 0 generals, 0 SOSs, and 0 indicators.
Presolve time = 0.11 sec. (89.56 ticks)
Probing fixed 0 vars, tightened 235 bounds.
Probing time = 0.13 sec. (22.68 ticks)
Clique table members: 44727.
MIP emphasis: integer feasibility.
MIP search method: dynamic search.
Parallel mode: opportunistic, using up to 32 threads.
Root relaxation solution time = 0.39 sec. (575.49 ticks)

        Nodes                                         Cuts/
   Node  Left     Objective  IInf  Best Integer    Best Bound    ItCnt     Gap

      0     0        0.0000    56                      0.0000     4839         
*     0+    0                            0.0000        0.0000             0.00%
      0     0        cutoff              0.0000        0.0000     4839    0.00%
Elapsed time = 1.58 sec. (1272.04 ticks, tree = 0.01 MB, solutions = 1)

Root node processing (before b&c):
  Real time             =    1.59 sec. (1273.99 ticks)
Parallel b&c, 32 threads:
  Real time             =    0.00 sec. (0.00 ticks)
  Sync time (average)   =    0.00 sec.
  Wait time (average)   =    0.00 sec.
                          ------------
Total (root+branch&cut) =    1.59 sec. (1273.99 ticks)

Solution pool: 1 solution saved.

MIP - Integer optimal solution:  Objective =  7.3123374023e-10
Solution time =    1.61 sec.  Iterations = 4839  Nodes = 0
Deterministic time = 1274.14 ticks  (791.39 ticks/sec)

CPLEX> Incumbent solution written to file 'C:\Users\llavin\Desktop\test826\logs\tmpuk0mnej7.cplex.sol'.
CPLEX> NOTE: no warmstart specified for MIP iteration, default behavior is true
NOTE: resolving with all competitive generators using storage-only solution to warmstart
Solving...

Welcome to IBM(R) ILOG(R) CPLEX(R) Interactive Optimizer 12.9.0.0
  with Simplex, Mixed Integer & Barrier Optimizers
5725-A06 5725-A29 5724-Y48 5724-Y49 5724-Y54 5724-Y55 5655-Y21
Copyright IBM Corp. 1988, 2019.  All Rights Reserved.

Type 'help' for a list of available commands.
Type 'help' followed by a command name for more
information on commands.

CPLEX> Logfile 'cplex.log' closed.
Logfile 'C:\Users\llavin\Desktop\test826\logs\tmpg8pjalhd.cplex.log' open.
CPLEX> New value for parallel optimization mode: -1
CPLEX> New value for emphasis for MIP optimization: 1
CPLEX> New value for mixed integer optimality gap tolerance: 0.01
CPLEX> New value for integrality tolerance: 1e-12
CPLEX> New value for deterministic time limit in ticks: 75000
CPLEX> Problem 'C:\Users\llavin\Desktop\test826\logs\tmpa_4vtmqz.pyomo.lp' read.
Read time = 0.23 sec. (13.94 ticks)
CPLEX> MIP start file 'C:\Users\llavin\Desktop\test826\logs\tmpmagtslzs.cplex.mst' read.
CPLEX> Problem name         : C:\Users\llavin\Desktop\test826\logs\tmpa_4vtmqz.pyomo.lp
Objective sense      : Maximize
Variables            :   54529  [Nneg: 1,  Box: 22724,  Free: 4464,
                                 Binary: 27340]
Objective nonzeros   :    9749
Linear constraints   :  123253  [Less: 41346,  Greater: 59096,  Equal: 22811]
  Nonzeros           :  293217
  RHS nonzeros       :   67491

Variables            : Min LB: -5000.000        Max UB: 1000000.       
Objective nonzeros   : Min   : 0.1083333        Max   : 2500.000       
Linear constraints   :
  Nonzeros           : Min   : 0.1083333        Max   : 1000000.       
  RHS nonzeros       : Min   : 0.1083333        Max   : 1000000.       
CPLEX> CPXPARAM_Parallel                                -1
CPXPARAM_Emphasis_MIP                            1
CPXPARAM_DetTimeLimit                            75000
CPXPARAM_MIP_Tolerances_MIPGap                   0.01
CPXPARAM_MIP_Tolerances_Integrality              9.9999999999999998e-13
Warning:  No solution found from 1 MIP starts.
Retaining values of one MIP start for possible repair.
Tried aggregator 4 times.
MIP Presolve eliminated 88648 rows and 19671 columns.
MIP Presolve added 3380 rows and 0 columns.
MIP Presolve modified 24833 coefficients.
Aggregator did 13009 substitutions.
Reduced MIP has 24976 rows, 21293 columns, and 71849 nonzeros.
Reduced MIP has 8424 binaries, 0 generals, 0 SOSs, and 0 indicators.
Presolve time = 0.33 sec. (193.09 ticks)
Probing fixed 419 vars, tightened 3886 bounds.
Probing time = 0.06 sec. (19.33 ticks)
Tried aggregator 2 times.
MIP Presolve eliminated 939 rows and 839 columns.
MIP Presolve modified 3035 coefficients.
Aggregator did 24 substitutions.
Reduced MIP has 24013 rows, 20430 columns, and 69055 nonzeros.
Reduced MIP has 8005 binaries, 0 generals, 0 SOSs, and 0 indicators.
Presolve time = 0.11 sec. (89.56 ticks)
Probing fixed 0 vars, tightened 235 bounds.
Probing time = 0.13 sec. (22.68 ticks)
Clique table members: 44727.
MIP emphasis: integer feasibility.
MIP search method: dynamic search.
Parallel mode: opportunistic, using up to 32 threads.
Root relaxation solution time = 0.41 sec. (575.49 ticks)

        Nodes                                         Cuts/
   Node  Left     Objective  IInf  Best Integer    Best Bound    ItCnt     Gap

      0     0        0.0000    56                      0.0000     4839         
*     0+    0                            0.0000        0.0000             0.00%
      0     0        cutoff              0.0000        0.0000     4839    0.00%
Elapsed time = 1.72 sec. (1299.79 ticks, tree = 0.01 MB, solutions = 1)

Root node processing (before b&c):
  Real time             =    1.73 sec. (1301.76 ticks)
Parallel b&c, 32 threads:
  Real time             =    0.00 sec. (0.00 ticks)
  Sync time (average)   =    0.00 sec.
  Wait time (average)   =    0.00 sec.
                          ------------
Total (root+branch&cut) =    1.73 sec. (1301.76 ticks)

Solution pool: 1 solution saved.

MIP - Integer optimal solution:  Objective =  7.2941475082e-10
Solution time =    1.78 sec.  Iterations = 4839  Nodes = 0
Deterministic time = 1301.92 ticks  (731.00 ticks/sec)

CPLEX> Incumbent solution written to file 'C:\Users\llavin\Desktop\test826\logs\tmp0gqi846z.cplex.sol'.
CPLEX> Exporting results... 
